job_count = 20 ;
duration = [|6, 3|3, 4|11, 6|13, 7|13, 7|10, 6|5, 4|13, 2|7, 4|4, 6|18, 6|10, 9|7, 2|16, 3|4, 8|9, 1|6, 5|11, 6|19, 8|5, 8|] ;
machine_count = 2 ;
cost = [|15, 37|10, 25|15, 22|10, 27|19, 30|12, 23|18, 35|19, 31|12, 35|11, 33|13, 34|15, 22|11, 32|16, 26|11, 32|12, 35|16, 28|17, 27|14, 36|19, 30|] ;
deadline = [50, 50, 50, 50, 50, 50, 50, 50, 50, 50, 50, 50, 50, 50, 50, 50, 50, 50, 50, 50] ;
release = [0, 0, 0, 0, 0, 0, 0, 0, 0, 0, 0, 0, 0, 0, 0, 0, 0, 0, 0, 0] ;
resource = [|8, 8|4, 4|7, 7|4, 4|8, 8|1, 1|1, 1|2, 2|1, 1|7, 7|9, 9|6, 6|2, 2|9, 9|2, 2|9, 9|2, 2|3, 3|6, 6|3, 3|] ;
capacities = [10, 10] ;
